1 1 -2 0
1 -1 3 0
1 -1 4 0
1 -1 5 0
1 6 2 0
1 -6 -3 0
1 -6 4 0
1 -6 5 0
1 7 -8 0
1 7 -9 0
1 -7 10 0
1 -7 2 0
1 -7 -11 0
1 -7 -12 0
1 -7 4 0
1 -7 5 0
1 10 8 0
1 -10 9 0
1 10 -2 0
1 10 3 0
1 10 12 0
1 10 7 0
1 -10 4 0
1 -10 -5 0
1 -3 -13 0
1 3 6 0
1 -3 -14 0
1 -3 -15 0
1 3 -16 0
1 -3 -17 0
1 -3 7 0
1 3 -1 0
1 5 18 0
1 5 -13 0
1 -5 -19 0
1 5 3 0
1 5 -15 0
1 5 -16 0
1 5 17 0
1 -2 -13 0
1 2 -20 0
1 2 21 0
1 -2 10 0
1 -2 6 0
1 -2 22 0
1 2 -15 0
1 2 23 0
1 2 -24 0
1 2 -7 0
1 2 1 0
1 -2 -4 0
1 4 -13 0
1 4 21 0
1 4 -10 0
1 -4 -6 0
1 -4 2 0
1 4 -15 0
1 4 -23 0
1 -4 -24 0
1 -4 7 0
1 4 -1 0
1 -4 -25 0
1 -17 -8 0
1 17 9 0
1 17 3 0
1 17 12 0
1 -17 24 0
1 -17 -5 0
1 -19 -8 0
1 -19 9 0
1 -19 21 0
1 -19 3 0
1 -19 11 0
1 19 12 0
1 19 -5 0
1 16 -8 0
1 16 -9 0
1 16 26 0
1 16 -27 0
1 -16 28 0
1 -16 -3 0
1 16 11 0
1 16 12 0
1 -16 -29 0
1 16 23 0
1 -16 -5 0
1 -26 9 0
1 -26 -20 0
1 26 -28 0
1 26 3 0
1 26 -11 0
1 -26 -12 0
1 26 29 0
1 -26 -30 0
1 26 5 0
1 -12 -31 0
1 -12 32 0
1 -12 9 0
1 -12 26 0
1 12 19 0
1 -12 -10 0
1 -12 33 0
1 -12 -34 0
1 12 -35 0
1 -12 16 0
1 -12 17 0
1 -12 -7 0
1 12 -36 0
1 -9 -31 0
1 -9 -32 0
1 9 26 0
1 -9 19 0
1 -9 10 0
1 9 34 0
1 -9 12 0
1 -9 -16 0
1 -9 -7 0
1 -11 -8 0
1 11 37 0
1 -11 -13 0
1 11 26 0
1 -11 -19 0
1 -11 10 0
1 -11 -38 0
1 -11 15 0
1 11 -16 0
1 11 -17 0
1 8 -37 0
1 8 13 0
1 -8 -19 0
1 8 -10 0
1 8 33 0
1 -8 -11 0
1 -8 15 0
1 8 -16 0
1 -8 17 0
1 8 36 0
1 35 32 0
1 35 9 0
1 35 -27 0
1 -35 -28 0
1 -35 -12 0
1 35 -15 0
1 -35 29 0
1 35 30 0
1 -32 13 0
1 -32 27 0
1 -32 -28 0
1 -32 -12 0
1 -32 30 0
1 -34 -9 0
1 34 27 0
1 -34 -28 0
1 -34 38 0
1 34 12 0
1 -34 -29 0
1 -34 30 0
1 -31 37 0
1 -31 9 0
1 -31 -27 0
1 31 34 0
1 -31 12 0
1 -31 -29 0
1 31 -30 0
1 -30 -32 0
1 -30 26 0
1 -30 28 0
1 30 -35 0
1 30 16 0
1 -28 31 0
1 -28 -32 0
1 -28 -26 0
1 28 -35 0
1 28 16 0
1 -28 30 0
1 -29 -31 0
1 29 -32 0
1 -29 -26 0
1 -29 27 0
1 -29 -39 0
1 29 -33 0
1 29 -34 0
1 29 -35 0
1 29 16 0
1 -27 31 0
1 27 -32 0
1 -27 26 0
1 27 39 0
1 27 -34 0
1 27 35 0
1 -27 40 0
1 -27 -36 0
1 24 -41 0
1 24 21 0
1 -24 -42 0
1 -24 -43 0
1 -24 44 0
1 -24 17 0
1 24 4 0
1 21 41 0
1 -21 -19 0
1 -21 -42 0
1 -21 -43 0
1 -21 -44 0
1 -23 41 0
1 23 -42 0
1 -23 45 0
1 23 46 0
1 -23 -2 0
1 23 16 0
1 -23 44 0
1 23 -47 0
1 23 48 0
1 23 -4 0
1 -20 44 0
1 20 -26 0
1 20 41 0
1 20 -42 0
1 20 -45 0
1 -20 2 0
1 -20 -43 0
1 -20 -23 0
1 20 -47 0
1 -20 -4 0
1 42 44 0
1 42 37 0
1 -42 -13 0
1 -42 20 0
1 42 21 0
1 42 -15 0
1 -42 -23 0
1 44 37 0
1 44 13 0
1 44 21 0
1 -44 -42 0
1 44 -38 0
1 44 15 0
1 -44 23 0
1 -44 -24 0
1 41 20 0
1 -41 -21 0
1 -41 43 0
1 41 23 0
1 -43 20 0
1 43 -41 0
1 -43 21 0
1 43 -23 0
1 43 24 0
1 -15 -13 0
1 -15 42 0
1 -15 3 0
1 15 -11 0
1 15 -35 0
1 15 44 0
1 15 -48 0
1 -15 -4 0
1 -15 5 0
1 -13 -32 0
1 13 -42 0
1 13 46 0
1 13 -11 0
1 13 -15 0
1 -13 -44 0
1 -13 47 0
1 -13 -4 0
1 -13 -5 0
1 38 18 0
1 -38 -37 0
1 -38 -45 0
1 38 -14 0
1 -38 -34 0
1 38 44 0
1 -38 25 0
1 -37 -18 0
1 37 -31 0
1 37 -8 0
1 -37 45 0
1 -37 46 0
1 37 -22 0
1 -37 -14 0
1 37 11 0
1 -37 -38 0
1 37 -44 0
1 37 -47 0
1 -37 -48 0
1 -37 -25 0
1 -46 37 0
1 46 13 0
1 46 -20 0
1 46 -39 0
1 -46 -33 0
1 -46 38 0
1 -46 -15 0
1 -46 -23 0
1 -46 48 0
1 -46 40 0
1 -46 36 0
1 -48 -37 0
1 48 -13 0
1 -48 -20 0
1 48 -39 0
1 -48 -38 0
1 -48 15 0
1 -48 -23 0
1 48 40 0
1 48 36 0
1 -45 -20 0
1 -45 38 0
1 45 15 0
1 45 23 0
1 45 -47 0
1 -47 37 0
1 -47 13 0
1 47 20 0
1 47 45 0
1 47 -38 0
1 -47 -15 0
1 47 23 0
1 -33 -18 0
1 -33 8 0
1 -33 -9 0
1 -33 -27 0
1 -33 -46 0
1 -33 22 0
1 33 11 0
1 33 -14 0
1 -33 -12 0
1 33 29 0
1 33 -48 0
1 -33 -25 0
1 33 36 0
1 -36 8 0
1 -36 -18 0
1 -36 -9 0
1 36 -46 0
1 36 -33 0
1 36 -14 0
1 -36 -11 0
1 36 -12 0
1 36 -29 0
1 36 48 0
1 36 25 0
1 -39 -18 0
1 -39 -27 0
1 39 46 0
1 39 14 0
1 39 -29 0
1 -39 -48 0
1 -39 25 0
1 40 -27 0
1 40 46 0
1 -40 39 0
1 40 -22 0
1 -40 14 0
1 -40 -25 0
1 -40 -48 0
1 14 18 0
1 -14 37 0
1 14 -33 0
1 14 3 0
1 -14 38 0
1 -14 40 0
1 -18 37 0
1 -18 -33 0
1 18 -14 0
1 -18 38 0
1 18 -5 0
1 18 40 0
1 18 36 0
1 22 37 0
1 -22 39 0
1 -22 -2 0
1 22 38 0
1 22 40 0
1 22 -36 0
1 25 37 0
1 25 39 0
1 25 22 0
1 25 -38 0
1 25 40 0
1 -25 36 0
